AtomicCoordinatesFormat  NotScaledCartesianAng
%block AtomicCoordinatesAndAtomicSpecies
-15.230629	26.495153	8.310924	1
-12.955211	22.893263	8.324477	1
-13.712895	24.094433	8.318679	1
-13.052861	25.352354	8.316833	1
-13.811643	26.552827	8.312921	1
-10.683130	19.288520	8.343634	1
-11.439279	20.490878	8.337308	1
-10.778842	21.748883	8.334504	1
-11.536373	22.950399	8.328323	1
-10.875683	24.208017	8.326813	1
-11.633921	25.409182	8.321323	1
-10.973579	26.666680	8.321997	1
-8.417936	15.679615	8.359850	1
-9.171409	16.883447	8.355766	1
-8.509550	18.140994	8.353426	1
-9.264522	19.344314	8.347424	1
-8.603445	20.601873	8.345301	1
-9.360014	21.804336	8.339358	1
-8.699271	23.061912	8.338244	1
-9.456683	24.263787	8.332561	1
-8.796164	25.520939	8.332850	1
-9.554543	26.722146	8.328108	1
-6.154363	12.069805	8.357941	1
-6.908711	13.273080	8.361352	1
-6.245988	14.530331	8.362730	1
-6.999640	15.734129	8.362258	1
-6.337316	16.991489	8.361995	1
-7.091184	18.195241	8.358096	1
-6.429645	19.452944	8.356718	1
-7.184912	20.656146	8.351022	1
-6.523890	21.913306	8.350188	1
-7.280372	23.115951	8.344571	1
-6.619405	24.372964	8.344561	1
-7.377230	25.575111	8.339383	1
-6.716659	26.832046	8.340728	1
-3.888900	8.462670	8.340725	1
-4.643916	9.665298	8.347082	1
-3.981407	10.922552	8.351210	1
-4.735840	12.125398	8.356944	1
-4.073292	13.382724	8.360849	1
-4.827441	14.585924	8.364270	1
-4.164891	15.843124	8.366327	1
-4.919037	17.046316	8.366118	1
-4.256402	18.303168	8.366342	1
-5.011031	19.506600	8.362796	1
-4.348912	20.763377	8.361854	1
-5.105184	21.966311	8.356814	1
-4.443622	23.222858	8.356004	1
-5.200547	24.425513	8.350816	1
-4.540079	25.682222	8.351210	1
-5.297642	26.884601	8.347083	1
-1.617231	4.858755	8.321993	1
-2.374783	6.059947	8.328106	1
-1.713695	7.317320	8.332847	1
-2.470071	8.519072	8.339382	1
-1.807899	9.776438	8.344562	1
-2.562831	10.978932	8.350818	1
-1.899770	12.235771	8.356006	1
-2.654498	13.438545	8.361733	1
-1.991117	14.695038	8.365789	1
-2.746134	15.897700	8.369165	1
-2.082737	17.154073	8.371038	1
-2.837578	18.357060	8.371035	1
-2.174653	19.613237	8.370475	1
-2.930148	20.816035	8.367502	1
-2.268163	22.072331	8.365789	1
-3.024625	23.275090	8.361733	1
-2.363570	24.531710	8.360847	1
-3.121162	25.734168	8.356943	1
-2.460025	26.990437	8.357945	1
-0.000001	0.000002	8.309844	1
0.659840	1.257804	8.310922	1
-0.099595	2.457849	8.312917	1
0.560649	3.715207	8.316831	1
-0.198032	4.915633	8.321319	1
0.463085	6.172863	8.326810	1
-0.294708	7.373872	8.332559	1
0.367435	8.630746	8.338243	1
-0.388807	9.832533	8.344571	1
0.274471	11.088981	8.350189	1
-0.480784	12.291120	8.356816	1
0.182846	13.547535	8.361856	1
-0.572136	14.749897	8.367502	1
0.091767	16.005571	8.370476	1
-0.663606	17.207878	8.373573	1
-0.000001	18.463659	8.373480	1
-0.755739	19.666258	8.373573	1
-0.092772	20.922161	8.371039	1
-0.849120	22.124871	8.369166	1
-0.187002	23.380834	8.366327	1
-0.944493	24.583224	8.364269	1
-0.283361	25.839511	8.362727	1
-1.040801	27.042081	8.361351	1
2.838366	0.114932	8.313822	1
2.079122	1.315235	8.312901	1
2.739689	2.572563	8.316811	1
1.980060	3.772562	8.318681	1
2.641458	5.029317	8.324480	1
1.882561	6.229501	8.328324	1
2.544337	7.486296	8.334504	1
1.786903	8.687315	8.339357	1
2.449979	9.943752	8.345300	1
1.693716	11.145103	8.351022	1
2.358079	12.400786	8.356719	1
1.602308	13.602514	8.362798	1
2.267191	14.857755	8.366343	1
1.511113	16.059553	8.371036	1
2.175507	17.314754	8.371039	1
1.419347	18.516856	8.373573	1
2.082884	19.772177	8.370475	1
1.326466	20.974380	8.371035	1
1.989209	22.230058	8.366344	1
1.232064	23.432350	8.366119	1
1.893725	24.688024	8.361996	1
1.135982	25.890299	8.362256	1
1.797923	27.145832	8.359848	1
4.257642	0.172015	8.318483	1
4.918154	1.429198	8.321974	1
4.159022	2.629423	8.321104	1
4.820052	3.886257	8.326816	1
4.061088	5.086476	8.328095	1
4.722751	6.343100	8.334565	1
3.964023	7.543346	8.337308	1
4.627216	8.799367	8.343634	1
3.869597	10.000024	8.347424	1
4.534211	11.255504	8.353428	1
3.778053	12.456727	8.358097	1
4.443596	13.711467	8.361993	1
3.686980	14.912324	8.366116	1
4.351897	16.167024	8.366324	1
3.595256	17.368418	8.369164	1
4.259278	18.623609	8.365788	1
3.502285	19.825060	8.367502	1
4.166065	21.080073	8.361856	1
3.408725	22.281878	8.362798	1
4.071569	23.537255	8.356719	1
3.313136	24.739020	8.358098	1
3.975342	25.994478	8.353428	1
3.217208	27.196444	8.355765	1
7.095893	0.283713	8.330643	1
6.337405	1.484937	8.327873	1
6.998493	2.741720	8.332792	1
6.239655	3.942540	8.332119	1
6.901698	5.198802	8.338345	1
6.142619	6.399121	8.339103	1
6.805297	7.655051	8.345594	1
6.047191	8.855559	8.347317	1
6.711449	10.110657	8.353347	1
5.954210	11.311092	8.355767	1
6.620020	12.565531	8.359849	1
5.863666	13.766558	8.362255	1
6.529354	15.021134	8.362726	1
5.771941	16.221839	8.364267	1
6.436866	17.476548	8.360846	1
5.679131	18.677353	8.361732	1
6.343396	19.932352	8.356004	1
5.585971	21.133560	8.356814	1
6.249426	22.388694	8.350187	1
5.491205	23.589739	8.351021	1
6.153471	24.845354	8.345301	1
5.394931	26.046647	8.347425	1
6.055916	27.303094	8.343635	1
8.515198	0.338329	8.336957	1
9.176128	1.594901	8.340713	1
8.417854	2.796247	8.338686	1
9.079592	4.052465	8.344340	1
8.321379	5.253739	8.343652	1
8.983825	6.509383	8.350214	1
8.225371	7.710060	8.350320	1
8.889595	8.964750	8.356628	1
8.131597	10.165371	8.356935	1
8.797074	11.419771	8.361193	1
8.040353	12.620748	8.361267	1
8.706397	13.875025	8.361962	1
7.949529	15.075817	8.361351	1
8.614414	16.330720	8.357944	1
7.857019	17.531420	8.356941	1
8.521492	18.786205	8.351209	1
7.763385	19.986547	8.350815	1
8.427305	21.241582	8.344561	1
7.669184	22.442508	8.344570	1
8.331838	23.698323	8.338243	1
7.573118	24.899337	8.339358	1
8.234510	26.155801	8.334505	1
7.475264	27.356764	8.337310	1
11.353068	0.445768	8.349700	1
10.595323	1.647847	8.346846	1
11.257259	2.903661	8.351673	1
10.499214	4.105429	8.350167	1
11.161806	5.360849	8.356480	1
10.403630	6.562225	8.355768	1
11.067114	7.817253	8.362164	1
10.309653	9.018455	8.361104	1
10.974143	10.272980	8.365443	1
10.217230	11.474050	8.363532	1
10.882515	12.728779	8.364212	1
10.126298	13.930036	8.361579	1
10.791335	15.184800	8.358497	1
10.034538	16.385862	8.355224	1
10.699510	17.640565	8.349701	1
9.941563	18.841090	8.347081	1
10.605559	20.096266	8.340725	1
9.847305	21.296810	8.339383	1
10.509865	22.552724	8.332851	1
9.751397	23.753331	8.332561	1
10.412601	25.010102	8.326813	1
9.653817	26.211088	8.328325	1
10.313755	27.468402	8.324480	1
12.772163	0.497239	8.355223	1
13.433912	1.753172	8.358497	1
12.676802	2.955585	8.357125	1
13.339004	4.211282	8.362176	1
12.581381	5.413058	8.361439	1
13.244362	6.668185	8.367023	1
12.487018	7.869816	8.366182	1
13.150809	9.124892	8.370322	1
12.393897	10.326460	8.367993	1
13.058531	11.581301	8.368843	1
12.302454	12.783005	8.364862	1
12.967575	14.037934	8.362171	1
12.211210	15.239272	8.357123	1
12.876013	16.494589	8.351674	1
12.119412	17.695755	8.346849	1
12.783159	18.951282	8.340713	1
12.025399	20.151956	8.336955	1
12.687755	21.408412	8.330644	1
11.929328	22.608899	8.328110	1
12.590812	23.865549	8.321998	1
11.831960	25.066179	8.321325	1
12.492215	26.323425	8.316834	1
11.732839	27.523998	8.318681	1
15.610678	0.602447	8.361961	1
14.853089	1.804615	8.361578	1
15.515298	3.060143	8.364213	1
14.758369	4.262738	8.364864	1
15.421034	5.518368	8.368844	1
14.663988	6.720571	8.369261	1
15.327283	7.976040	8.372774	1
14.570441	9.177923	8.371682	1
15.233816	10.433654	8.372773	1
14.478193	11.635824	8.369260	1
15.142639	12.891447	8.367021	1
14.387154	14.093173	8.361435	1
15.051729	15.348661	8.356480	1
14.295796	16.550199	8.350169	1
14.959740	17.806102	8.344342	1
14.202691	19.007298	8.338687	1
14.865153	20.263758	8.332792	1
14.107289	21.464674	8.327874	1
14.768645	22.721646	8.321975	1
14.010149	23.922265	8.318483	1
14.670353	25.179931	8.313821	1
13.911246	26.380320	8.312920	1
14.570789	27.638034	8.310922	1
17.029940	0.652778	8.361265	1
17.691652	1.908600	8.361191	1
16.934571	3.111355	8.363531	1
17.596264	4.367391	8.365442	1
16.840075	5.570199	8.367993	1
17.502207	6.826487	8.370321	1
16.746468	8.029410	8.371681	1
17.408904	9.285792	8.372773	1
16.653097	10.488161	8.371681	1
17.316987	11.744104	8.370321	1
16.561953	12.946512	8.366182	1
17.226384	14.202463	8.362165	1
16.471238	15.404577	8.355769	1
17.135381	16.660580	8.350216	1
16.379181	17.862102	8.343653	1
17.041446	19.119045	8.338345	1
16.284511	20.320526	8.332119	1
16.945572	21.578075	8.326815	1
16.187636	22.778967	8.321103	1
16.848060	24.036573	8.316811	1
16.089467	25.237308	8.312901	1
19.868189	0.756956	8.353345	1
19.110734	1.959486	8.356933	1
19.771499	3.216237	8.356627	1
19.014965	4.419192	8.361104	1
19.676504	5.675771	8.362163	1
18.921034	6.879166	8.366181	1
19.583002	8.135856	8.367021	1
18.827822	9.339101	8.369260	1
19.490436	10.595820	8.368842	1
18.736029	11.798835	8.367993	1
19.399595	13.055112	8.365443	1
18.645388	14.257845	8.361106	1
19.308909	15.514498	8.356629	1
18.554423	16.717084	8.350320	1
19.216824	17.974405	8.345595	1
18.460493	19.176271	8.339103	1
19.121913	20.433918	8.334564	1
18.364474	21.635253	8.328093	1
21.287268	0.809245	8.347316	1
21.947882	2.066033	8.345594	1
21.190209	3.268353	8.350319	1
21.850797	4.525527	8.350214	1
21.095137	5.728696	8.355768	1
21.756467	6.985981	8.356479	1
21.001469	8.189267	8.361435	1
21.663422	9.446271	8.362169	1
20.909181	10.649752	8.364860	1
21.572192	11.906564	8.364210	1
20.818208	13.110086	8.363532	1
21.481281	14.367110	8.361193	1
20.727676	15.570637	8.356935	1
21.390365	16.827875	8.353346	1
20.635546	18.030693	8.347317	1
24.125338	0.918471	8.334566	1
23.366892	2.120106	8.339102	1
24.026858	3.377642	8.338343	1
23.269445	4.579656	8.343652	1
23.930671	5.836920	8.344341	1
23.174997	7.039870	8.350167	1
23.836731	8.297236	8.351672	1
23.081994	9.500637	8.357121	1
23.744759	10.757516	8.358496	1
22.990619	11.960844	8.361577	1
23.652936	13.218013	8.361961	1
22.899715	14.421966	8.361267	1
25.544442	0.973767	8.328095	1
26.204377	2.231156	8.326817	1
25.445838	3.432431	8.332118	1
26.106353	4.690013	8.332790	1
25.349460	5.891951	8.338684	1
26.010714	7.149305	8.340710	1
25.255268	8.351893	8.346845	1
25.917426	9.609152	8.349700	1
25.163311	10.812389	8.355224	1
28.382256	1.086360	8.316810	1
27.623346	2.287109	8.321104	1
28.283203	3.544645	8.321974	1
27.525311	4.745887	8.327871	1
28.186355	6.003365	8.330640	1
27.429406	7.205215	8.336953	1
29.801418	1.142963	8.312896	1
30.461287	2.400635	8.313818	1
29.702218	3.601222	8.318481	1
-13.250310	25.122932	11.683189	1
-13.910875	26.380263	11.687103	1
-13.151632	27.580563	11.686181	1
-11.267251	21.352391	11.665436	1
-11.928913	22.609019	11.671905	1
-11.169949	23.809234	11.673183	1
-11.830977	25.066073	11.678895	1
-11.071847	26.266294	11.678023	1
-11.732357	27.523483	11.681517	1
-9.278557	17.584837	11.646657	1
-9.942814	18.839940	11.652687	1
-9.184706	20.040439	11.654409	1
-9.847383	21.296374	11.660900	1
-9.088306	22.496688	11.661657	1
-9.750345	23.752956	11.667881	1
-8.991509	24.953772	11.667207	1
-9.652596	26.210560	11.672125	1
-8.894108	27.411779	11.669356	1
-7.283607	13.820467	11.638039	1
-7.949649	15.074751	11.638735	1
-7.192928	16.275721	11.638809	1
-7.858405	17.530125	11.643068	1
-7.100408	18.730740	11.643375	1
-7.764628	19.985436	11.649683	1
-7.006178	21.186107	11.649787	1
-7.668624	22.441756	11.656349	1
-6.910411	23.643025	11.655660	1
-7.572148	24.899250	11.661313	1
-6.813875	26.100590	11.659288	1
-7.474802	27.357168	11.663043	1
-5.290488	10.054929	11.650300	1
-5.955461	11.309637	11.644777	1
-5.198665	12.510695	11.641504	1
-5.863705	13.765460	11.638422	1
-5.107490	14.966714	11.635787	1
-5.772774	16.221446	11.636468	1
-5.015862	17.422508	11.634558	1
-5.680351	18.677038	11.638897	1
-4.922891	19.878236	11.637836	1
-5.586373	21.133270	11.644232	1
-4.828195	22.334640	11.643521	1
-5.490790	23.590068	11.649833	1
-4.732748	24.791830	11.648329	1
-5.394681	26.047649	11.653155	1
-4.636943	27.249724	11.650301	1
-3.302243	6.287079	11.669357	1
-3.964597	7.543541	11.663042	1
-3.206839	8.744210	11.659288	1
-3.870584	9.999743	11.653154	1
-3.113986	11.200904	11.648327	1
-3.778790	12.456225	11.642875	1
-3.022426	13.657558	11.637825	1
-3.687548	14.912492	11.635136	1
-2.931471	16.114192	11.631156	1
-3.596106	17.369033	11.632008	1
-2.839193	18.570599	11.629679	1
-3.502985	19.825679	11.633818	1
-2.745643	21.027306	11.632978	1
-3.408622	22.282438	11.638565	1
-2.651000	23.484208	11.637831	1
-3.313203	24.739911	11.642879	1
-2.556098	25.942322	11.641505	1
-3.217852	27.198260	11.644776	1
-1.319648	2.515562	11.686178	1
-1.979851	3.773233	11.681517	1
-1.221354	4.973845	11.678025	1
-1.882708	6.230822	11.672127	1
-1.124846	7.431733	11.667208	1
-1.787306	8.688199	11.661314	1
-1.030257	9.889390	11.655660	1
-1.694202	11.145300	11.649833	1
-0.938272	12.346831	11.643520	1
-1.602846	13.602324	11.638561	1
-0.847364	14.804046	11.632977	1
-1.511808	16.059672	11.630738	1
-0.756189	17.261836	11.627226	1
-1.419562	18.517571	11.628319	1
-0.662721	19.719448	11.627227	1
-1.326014	20.974922	11.630741	1
-0.568970	22.177122	11.631159	1
-1.231635	23.432758	11.635141	1
-0.474709	24.635348	11.635790	1
-1.136915	25.890882	11.638423	1
-0.379334	27.093050	11.638039	1
0.000003	0.000001	11.690157	1
0.759371	1.200339	11.689078	1
0.099466	2.458190	11.687099	1
0.858060	3.658920	11.683188	1
0.197637	4.916529	11.678894	1
0.955573	6.117415	11.673180	1
0.294513	7.374969	11.667879	1
1.051447	8.576445	11.661655	1
0.389183	9.833394	11.656348	1
1.145380	11.034913	11.649786	1
0.481239	12.290920	11.644232	1
1.236384	13.493028	11.637836	1
0.571951	14.748982	11.633818	1
1.326983	15.951380	11.629679	1
0.663093	17.207332	11.628319	1
1.418902	18.409696	11.627227	1
0.756464	19.666083	11.628319	1
1.512192	20.868999	11.629678	1
0.850076	22.125293	11.632009	1
1.606261	23.328098	11.634557	1
0.944564	24.584140	11.636468	1
1.701642	25.786890	11.638807	1
1.039931	27.042717	11.638733	1
2.178358	1.142670	11.687083	1
2.937140	2.343138	11.683169	1
2.277106	3.601063	11.681319	1
3.034789	4.802226	11.675520	1
2.374475	6.060242	11.671902	1
3.131911	7.261572	11.665434	1
2.470493	8.519224	11.660897	1
3.226821	9.721086	11.654406	1
2.564422	10.978413	11.649680	1
3.318906	12.180992	11.643372	1
2.655387	13.437650	11.638896	1
3.409593	14.640378	11.634558	1
2.746028	15.896660	11.632008	1
3.500436	17.099670	11.631157	1
2.837824	18.356395	11.630740	1
3.593001	19.559634	11.632979	1
2.931029	20.816327	11.633818	1
3.686499	22.019718	11.637834	1
3.024961	23.276302	11.638893	1
3.781493	24.479254	11.643372	1
3.120728	25.736011	11.643065	1
3.878184	26.938536	11.646654	1
5.016421	1.028812	11.678005	1
4.356081	2.286314	11.678681	1
5.114315	3.487473	11.673190	1
4.453627	4.745095	11.671676	1
5.211155	5.946607	11.665495	1
4.550719	7.204617	11.662691	1
5.306868	8.406971	11.656366	1
4.645544	9.664802	11.652683	1
5.400364	10.867616	11.646653	1
4.737674	12.124858	11.643065	1
5.491277	13.328379	11.638807	1
4.828206	14.585409	11.636468	1
5.582190	15.788926	11.635788	1
4.919182	17.045741	11.635138	1
5.673420	18.249219	11.637829	1
5.011468	19.506228	11.638564	1
5.766467	20.709511	11.643520	1
5.105134	21.966800	11.644230	1
5.860794	23.169966	11.649784	1
5.200206	24.427144	11.649680	1
5.957879	25.629459	11.654406	1
5.297265	26.886254	11.652683	1
6.435458	0.973349	11.671892	1
7.193833	2.174553	11.667152	1
6.533315	3.431709	11.667441	1
7.290728	4.633581	11.661757	1
6.629985	5.891161	11.660643	1
7.386553	7.093621	11.654700	1
6.725479	8.351184	11.652576	1
7.480449	9.554498	11.646573	1
6.818591	10.812047	11.644234	1
7.572061	12.015874	11.640151	1
6.909715	13.273530	11.638733	1
7.662935	14.477480	11.638038	1
7.000619	15.734652	11.638421	1
7.754758	16.937977	11.641502	1
7.091992	18.194859	11.642876	1
7.846727	19.398256	11.648325	1
7.184994	20.655625	11.649831	1
7.940666	21.858569	11.655658	1
7.279443	23.115839	11.656347	1
8.036855	24.317849	11.661655	1
7.376891	25.575391	11.660897	1
8.135336	26.777021	11.665436	1
9.273338	0.863448	11.659273	1
8.612769	2.120389	11.660618	1
9.370593	3.322530	11.655438	1
8.709627	4.579548	11.655429	1
9.466103	5.782190	11.649811	1
8.805084	7.039353	11.648978	1
9.560352	8.242549	11.643281	1
8.898816	9.500257	11.641904	1
9.652682	10.704004	11.638007	1
8.990358	11.961367	11.637745	1
9.744010	13.165163	11.637274	1
9.081288	14.422419	11.638649	1
9.835636	15.625686	11.642059	1
9.173311	16.883107	11.644775	1
9.927426	18.086339	11.650299	1
9.265268	19.343602	11.653152	1
10.020712	20.546185	11.659287	1
9.359457	21.803543	11.661313	1
10.116352	23.005479	11.667208	1
9.455836	24.263064	11.667881	1
10.214376	25.464335	11.673185	1
9.554441	26.721729	11.671907	1
10.692352	0.810898	11.652919	1
11.449909	2.013275	11.648791	1
10.789448	3.269987	11.649183	1
11.546373	4.472635	11.643995	1
10.884814	5.729188	11.643184	1
11.641086	6.932119	11.638144	1
10.978967	8.188899	11.637203	1
11.733598	9.392324	11.633658	1
11.070963	10.649181	11.633884	1
11.825106	11.852368	11.633676	1
11.162557	13.109574	11.635733	1
11.916705	14.312768	11.639154	1
11.254157	15.570099	11.643058	1
12.008590	16.772939	11.648791	1
11.346084	18.030198	11.652919	1
12.101098	19.232821	11.659274	1
11.439406	20.490282	11.663044	1
12.196352	21.692127	11.669356	1
11.535309	22.949611	11.672126	1
12.293201	24.150848	11.678025	1
11.633346	25.408389	11.678898	1
12.392253	26.609136	11.683190	1
13.529939	0.705067	11.642059	1
12.868821	1.961340	11.643057	1
13.626423	3.163788	11.639152	1
12.965369	4.420410	11.638267	1
13.721834	5.623162	11.634212	1
13.059853	6.879465	11.632498	1
13.815347	8.082259	11.629524	1
13.152424	9.338439	11.628965	1
13.907264	10.541418	11.628962	1
13.243865	11.797792	11.630836	1
13.998881	13.000450	11.634212	1
13.335499	14.256951	11.638268	1
14.090227	15.459719	11.643995	1
13.427168	16.716566	11.649184	1
14.182098	17.919054	11.655439	1
13.519927	19.176425	11.660617	1
14.276299	20.378174	11.667149	1
13.615216	21.635552	11.671889	1
14.372765	22.836739	11.678002	1
13.712215	24.094278	11.681517	1
14.471284	25.294864	11.686179	1
13.811417	26.552540	11.687100	1
14.949179	0.653421	11.638648	1
15.706629	1.855981	11.637270	1
15.045501	3.112275	11.635730	1
15.802993	4.314661	11.633673	1
15.140879	5.570628	11.630835	1
15.897232	6.773333	11.628962	1
15.234262	8.029239	11.626427	1
15.990001	9.231832	11.626520	1
15.326396	10.487618	11.626427	1
16.081767	11.689918	11.629524	1
15.417867	12.945598	11.632498	1
16.172847	14.147954	11.638144	1
15.509214	15.404373	11.643186	1
16.264465	16.606509	11.649813	1
15.601190	17.862963	11.655430	1
16.357431	19.064746	11.661757	1
15.695288	20.321625	11.667439	1
16.453082	21.522629	11.673188	1
15.791967	22.779869	11.678677	1
16.550647	23.980288	11.683168	1
15.890405	25.237651	11.687081	1
16.649844	26.437689	11.689078	1
17.787913	0.549660	11.640150	1
17.125975	1.805199	11.637742	1
17.883718	3.007468	11.638005	1
17.222061	4.263146	11.633882	1
17.979210	5.465431	11.633658	1
17.316470	6.721114	11.628965	1
18.072889	7.923312	11.629525	1
17.409348	9.178639	11.626427	1
18.165510	10.380737	11.628961	1
17.501114	11.635942	11.628964	1
18.257190	12.837735	11.633657	1
17.592309	14.092981	11.637202	1
18.348074	15.294709	11.643281	1
17.683710	16.550392	11.648978	1
18.439970	17.751740	11.654698	1
17.776898	19.008181	11.660642	1
18.534329	20.209197	11.665496	1
17.872559	21.465995	11.671675	1
18.631459	22.666175	11.675521	1
17.970062	23.922937	11.681319	1
19.207199	0.499050	11.644234	1
19.965336	1.701010	11.646574	1
19.303132	2.956474	11.641905	1
20.061566	4.158235	11.643282	1
19.398726	5.413619	11.637203	1
20.156068	6.615419	11.638146	1
19.492290	7.870434	11.632498	1
20.249280	9.071879	11.634211	1
19.585261	10.327076	11.630835	1
20.341897	11.528469	11.633674	1
19.676979	12.783174	11.633882	1
20.433592	13.984027	11.638004	1
19.768045	15.238770	11.641902	1
20.524202	16.439988	11.646572	1
19.859589	17.695474	11.652575	1
20.617209	18.896125	11.656367	1
19.954019	20.152151	11.662691	1
22.045913	0.392398	11.656366	1
21.384928	1.648845	11.652577	1
22.143468	2.850134	11.654700	1
21.481204	4.105756	11.648979	1
22.239426	5.306798	11.649813	1
21.575976	6.561935	11.643186	1
22.333397	7.763138	11.643995	1
21.669132	9.018143	11.638267	1
22.426868	10.218944	11.639153	1
21.761942	11.473659	11.635732	1
22.519353	12.674360	11.637272	1
21.853663	13.928940	11.637744	1
22.610015	15.129965	11.640152	1
21.944199	16.384407	11.644235	1
23.465261	0.338732	11.662692	1
24.224507	1.539689	11.665497	1
23.563116	2.796157	11.660643	1
24.321838	3.997165	11.661757	1
23.659187	5.252987	11.655430	1
24.417309	6.453908	11.655439	1
23.753389	7.708950	11.649184	1
24.511496	8.909287	11.648790	1
23.847023	10.164077	11.643058	1
24.604414	11.364772	11.642056	1
23.939527	12.619681	11.638649	1
26.303753	0.227090	11.675523	1
25.643816	1.484407	11.671677	1
26.402600	2.685389	11.673187	1
25.741399	3.942165	11.667439	1
26.499864	5.142767	11.667150	1
25.837311	6.398686	11.660617	1
26.595563	7.599226	11.659272	1
25.931568	8.854408	11.652918	1
27.722838	0.171500	11.681321	1
28.482213	1.372068	11.683167	1
27.821960	2.629319	11.678677	1
28.580812	3.829942	11.678003	1
27.919329	5.086596	11.671892	1
30.560791	0.057465	11.689076	1
29.901245	1.315179	11.687080	1
%endblock AtomicCoordinatesAndAtomicSpecies
